3878,6233,24044,21078,21134,8852,12505,22895,4175,16924,23017,276,11081,18810,12508,17843,35,2333,9468,1835,631,24505,13913,5370,12704,12179,24992,10061,14053,19525,23686,15547,10863,8968,16405,16549,17547,4064,3878